unknown
(model
; cardinality of BoundSet is 7
(declare-sort BoundSet 0)
; rep: @uc_BoundSet_0
; rep: @uc_BoundSet_1
; rep: @uc_BoundSet_2
; rep: @uc_BoundSet_3
; rep: @uc_BoundSet_4
; rep: @uc_BoundSet_5
; rep: @uc_BoundSet_6
; cardinality of UnboundSet is 1
(declare-sort UnboundSet 0)
(declare-fun groundTerm_8 () UnboundSet)
(define-fun ReportedChronic ((BOUND_VARIABLE_454 BoundSet) (BOUND_VARIABLE_455 BoundSet)) Bool true)
(define-fun Reported ((BOUND_VARIABLE_454 BoundSet) (BOUND_VARIABLE_455 BoundSet)) Bool true)
(define-fun ReportedLack ((BOUND_VARIABLE_466 BoundSet) (BOUND_VARIABLE_467 BoundSet) (BOUND_VARIABLE_468 BoundSet)) Bool true)
(define-fun IsIn ((BOUND_VARIABLE_454 BoundSet) (BOUND_VARIABLE_455 BoundSet)) Bool false)
)
sat
(model
; cardinality of BoundSet is 1
(declare-sort BoundSet 0)
; rep: @uc_BoundSet_0
; cardinality of UnboundSet is 1
(declare-sort UnboundSet 0)
(declare-fun groundTerm_10 () UnboundSet)
(define-fun ReportedChronic ((BOUND_VARIABLE_509 BoundSet) (BOUND_VARIABLE_510 BoundSet)) Bool true)
(define-fun Reported ((BOUND_VARIABLE_509 BoundSet) (BOUND_VARIABLE_510 BoundSet)) Bool true)
(define-fun ReportedLack ((BOUND_VARIABLE_521 BoundSet) (BOUND_VARIABLE_522 BoundSet) (BOUND_VARIABLE_523 BoundSet)) Bool true)
(define-fun IsIn ((BOUND_VARIABLE_509 BoundSet) (BOUND_VARIABLE_510 BoundSet)) Bool false)
)
